0000000000000000
0000000000000000
0000000000000000
0000000000000000
0000000000000000
0000000000000000
0000000000000000
0000000000000000
0000000000000000
0110000010000000
0011000110000000
0001100100000000
0001110100000000
0001001100000000
0001001100000000
0010000110000000
